NAME
ROWS
 N  OBJ
COLUMNS
    MARKER    'MARKER'                 'INTORG'
    x1        OBJ       2
    MARKER    'MARKER'                 'INTEND'
RHS
RANGES
BOUNDS
 LO bounds    x1        1.5
 PL bounds    x1
ENDATA
